Al12 O18
1.0
4.805027 0.000000 0.000000
-2.402514 4.161275 0.000000
0.000000 0.000000 13.116253
Al O
12 18
direct
0.666667 0.333333 0.685430 Al
0.333333 0.666667 0.814570 Al
0.000000 0.000000 0.852096 Al
0.666667 0.333333 0.981237 Al
0.333333 0.666667 0.018763 Al
0.000000 0.000000 0.147904 Al
0.666667 0.333333 0.185430 Al
0.333333 0.666667 0.314570 Al
0.000000 0.000000 0.352096 Al
0.666667 0.333333 0.481237 Al
0.333333 0.666667 0.518763 Al
0.000000 0.000000 0.647904 Al
0.333333 0.360521 0.916667 O
0.693854 0.693854 0.750000 O
0.639479 0.972812 0.916667 O
0.027188 0.666667 0.916667 O
0.306146 0.000000 0.750000 O
0.000000 0.306146 0.750000 O
0.000000 0.693854 0.250000 O
0.360521 0.027188 0.083333 O
0.306146 0.306146 0.250000 O
0.693854 0.000000 0.250000 O
0.972812 0.333333 0.083333 O
0.666667 0.639479 0.083333 O
0.666667 0.027188 0.583333 O
0.027188 0.360521 0.416667 O
0.972812 0.639479 0.583333 O
0.360521 0.333333 0.583333 O
0.639479 0.666667 0.416667 O
0.333333 0.972812 0.416667 O
